Minimize
	value: tt

Subject to
tt + 2000 s_1_1 > 0
tt - t_1_1 - 2002.500000 s_1_1 + 2.500000 s_1_6 > -1982.617213
tt + 2000 s_2_1 > 0
tt - t_2_1 - 2005.000000 s_2_1 + 5.000000 s_2_6 > -1984.844867
tt + 2000 s_1_2 > 0
tt - t_1_2 - 2002.500000 s_1_2 + 2.500000 s_1_7 > -1980.436164
tt + 2000 s_2_2 > 0
tt - t_2_2 - 2005.000000 s_2_2 + 5.000000 s_2_7 > -1984.833978
tt + 2000 s_1_3 > 0
tt - t_1_3 - 2002.500000 s_1_3 + 2.500000 s_1_7 > -1970.168617
tt + 2000 s_2_3 > 0
tt - t_2_3 - 2005.000000 s_2_3 + 5.000000 s_2_7 > -1979.194471
tt + 2000 s_1_4 > 0
tt - t_1_4 - 2019.355627 s_1_4 + 19.355627 s_1_7 > -1983.972539
tt + 2000 s_2_4 > 0
tt - t_2_4 - 2038.711253 s_2_4 + 38.711253 s_2_7 > -1986.317844
tt + 2000 s_1_5 > 0
tt - t_1_5 - 2010.000000 s_1_5 + 10.000000 s_1_7 > -1985.605838
tt + 2000 s_2_5 > 0
tt - t_2_5 - 2020.000000 s_2_5 + 20.000000 s_2_7 > -1988.635678
tt + 2000 s_1_6 > 0
tt - t_1_6 - 2000.000000 s_1_6 > -1962.426000
tt + 2000 s_2_6 > 0
tt - t_2_6 - 2000.000000 s_2_6 > -1983.555811
tt + 2000 s_1_7 > 0
tt - t_1_7 - 2000.000000 s_1_7 > -1962.349300
tt + 2000 s_2_7 > 0
tt - t_2_7 - 2000.000000 s_2_7 > -1983.842000
tt + 2000 s_1_8 > 0
tt - t_1_8 - 2143.556267 s_1_8 + 143.556267 s_1_4 > -1996.957700
tt + 2000 s_2_8 > 0
tt - t_2_8 - 2287.112533 s_2_8 + 287.112533 s_2_4 > -1968.964000
s_1_1 + s_2_1  = 1
s_1_2 + s_2_2  = 1
s_1_3 + s_2_3  = 1
s_1_4 + s_2_4  = 1
s_1_5 + s_2_5  = 1
s_1_6 + s_2_6  = 1
s_1_7 + s_2_7  = 1
s_1_8 + s_2_8  = 1
t_1_1 - t_1_2 + 2000.000000 u_1_1_2 - 2.500000 s_1_2 + 2.500000 s_1_7 > 19.563836
t_1_2 - t_1_1 - 2000.000000 u_1_1_2 > -1982.617213
t_2_1 - t_2_2 + 2000.000000 u_2_1_2 - 5.000000 s_2_2 + 5.000000 s_2_7 > 15.166022
t_2_2 - t_2_1 - 2000.000000 u_2_1_2 > -1984.844867
t_1_1 - t_1_3 + 2000.000000 u_1_1_3 - 2.500000 s_1_3 + 2.500000 s_1_7 > 29.831383
t_1_3 - t_1_1 - 2000.000000 u_1_1_3 > -1982.617213
t_2_1 - t_2_3 + 2000.000000 u_2_1_3 - 5.000000 s_2_3 + 5.000000 s_2_7 > 20.805529
t_2_3 - t_2_1 - 2000.000000 u_2_1_3 > -1984.844867
t_1_1 - t_1_4 + 2000.000000 u_1_1_4 - 9.677813 s_1_4 + 9.677813 s_1_7 > 16.027461
t_1_4 - t_1_1 - 2000.000000 u_1_1_4 > -1982.617213
t_2_1 - t_2_4 + 2000.000000 u_2_1_4 - 19.355627 s_2_4 + 19.355627 s_2_7 > 13.682156
t_2_4 - t_2_1 - 2000.000000 u_2_1_4 > -1984.844867
t_1_1 - t_1_5 + 2000.000000 u_1_1_5 - 5.000000 s_1_5 + 5.000000 s_1_7 > 14.394162
t_1_5 - t_1_1 - 2000.000000 u_1_1_5 > -1982.617213
t_2_1 - t_2_5 + 2000.000000 u_2_1_5 - 10.000000 s_2_5 + 10.000000 s_2_7 > 11.364322
t_2_5 - t_2_1 - 2000.000000 u_2_1_5 > -1984.844867
t_1_1 - t_1_6 - 2000.000000 s_1_6 > -1944.481467
t_1_1 - t_2_6 - 2000.000000 s_2_6 > -1947.666744
t_2_1 - t_1_6 - 2000.000000 s_1_6 > -1944.481467
t_2_1 - t_2_6 - 2000.000000 s_2_6 > -1947.666744
t_1_1 - t_1_7 + 2000.000000 u_1_1_7 > 37.650700
t_1_7 - t_1_1 - 2000.000000 u_1_1_7 > -1982.617213
t_2_1 - t_2_7 + 2000.000000 u_2_1_7 > 16.158000
t_2_7 - t_2_1 - 2000.000000 u_2_1_7 > -1984.844867
t_1_8 - t_1_1 - 2000.000000 s_1_1 > -1980.117213
t_1_8 - t_2_1 - 2000.000000 s_2_1 > -1979.844867
t_2_8 - t_1_1 - 2000.000000 s_1_1 > -1980.117213
t_2_8 - t_2_1 - 2000.000000 s_2_1 > -1979.844867
t_1_2 - t_1_1 + 2000.000000 u_1_2_1 - 2.500000 s_1_1 + 2.500000 s_1_6 > 17.382787
t_1_1 - t_1_2 - 2000.000000 u_1_2_1 > -1980.436164
t_2_2 - t_2_1 + 2000.000000 u_2_2_1 - 5.000000 s_2_1 + 5.000000 s_2_6 > 15.155133
t_2_1 - t_2_2 - 2000.000000 u_2_2_1 > -1984.833978
t_1_2 - t_1_3 + 2000.000000 u_1_2_3 - 2.500000 s_1_3 + 2.500000 s_1_7 > 29.831383
t_1_3 - t_1_2 - 2000.000000 u_1_2_3 > -1980.436164
t_2_2 - t_2_3 + 2000.000000 u_2_2_3 - 5.000000 s_2_3 + 5.000000 s_2_7 > 20.805529
t_2_3 - t_2_2 - 2000.000000 u_2_2_3 > -1984.833978
t_1_2 - t_1_4 + 2000.000000 u_1_2_4 - 9.677813 s_1_4 + 9.677813 s_1_7 > 16.027461
t_1_4 - t_1_2 - 2000.000000 u_1_2_4 > -1980.436164
t_2_2 - t_2_4 + 2000.000000 u_2_2_4 - 19.355627 s_2_4 + 19.355627 s_2_7 > 13.682156
t_2_4 - t_2_2 - 2000.000000 u_2_2_4 > -1984.833978
t_1_2 - t_1_5 + 2000.000000 u_1_2_5 - 5.000000 s_1_5 + 5.000000 s_1_7 > 14.394162
t_1_5 - t_1_2 - 2000.000000 u_1_2_5 > -1980.436164
t_2_2 - t_2_5 + 2000.000000 u_2_2_5 - 10.000000 s_2_5 + 10.000000 s_2_7 > 11.364322
t_2_5 - t_2_2 - 2000.000000 u_2_2_5 > -1984.833978
t_1_2 - t_1_6 + 2000.000000 u_1_2_6 > 37.574000
t_1_6 - t_1_2 - 2000.000000 u_1_2_6 > -1980.436164
t_2_2 - t_2_6 + 2000.000000 u_2_2_6 > 16.444189
t_2_6 - t_2_2 - 2000.000000 u_2_2_6 > -1984.833978
t_1_2 - t_1_7 - 2000.000000 s_1_7 > -1944.404767
t_1_2 - t_2_7 - 2000.000000 s_2_7 > -1947.952933
t_2_2 - t_1_7 - 2000.000000 s_1_7 > -1944.404767
t_2_2 - t_2_7 - 2000.000000 s_2_7 > -1947.952933
t_1_8 - t_1_2 - 2000.000000 s_1_2 > -1977.936164
t_1_8 - t_2_2 - 2000.000000 s_2_2 > -1979.833978
t_2_8 - t_1_2 - 2000.000000 s_1_2 > -1977.936164
t_2_8 - t_2_2 - 2000.000000 s_2_2 > -1979.833978
t_1_3 - t_1_1 + 2000.000000 u_1_3_1 - 2.500000 s_1_1 + 2.500000 s_1_6 > 17.382787
t_1_1 - t_1_3 - 2000.000000 u_1_3_1 > -1970.168617
t_2_3 - t_2_1 + 2000.000000 u_2_3_1 - 5.000000 s_2_1 + 5.000000 s_2_6 > 15.155133
t_2_1 - t_2_3 - 2000.000000 u_2_3_1 > -1979.194471
t_1_3 - t_1_2 + 2000.000000 u_1_3_2 - 2.500000 s_1_2 + 2.500000 s_1_7 > 19.563836
t_1_2 - t_1_3 - 2000.000000 u_1_3_2 > -1970.168617
t_2_3 - t_2_2 + 2000.000000 u_2_3_2 - 5.000000 s_2_2 + 5.000000 s_2_7 > 15.166022
t_2_2 - t_2_3 - 2000.000000 u_2_3_2 > -1979.194471
t_1_4 - t_1_3 - 2000.000000 s_1_3 > -1967.668617
t_1_4 - t_2_3 - 2000.000000 s_2_3 > -1974.194471
t_2_4 - t_1_3 - 2000.000000 s_1_3 > -1967.668617
t_2_4 - t_2_3 - 2000.000000 s_2_3 > -1974.194471
t_1_3 - t_1_5 + 2000.000000 u_1_3_5 - 5.000000 s_1_5 + 5.000000 s_1_7 > 14.394162
t_1_5 - t_1_3 - 2000.000000 u_1_3_5 > -1970.168617
t_2_3 - t_2_5 + 2000.000000 u_2_3_5 - 10.000000 s_2_5 + 10.000000 s_2_7 > 11.364322
t_2_5 - t_2_3 - 2000.000000 u_2_3_5 > -1979.194471
t_1_3 - t_1_6 + 2000.000000 u_1_3_6 > 37.574000
t_1_6 - t_1_3 - 2000.000000 u_1_3_6 > -1970.168617
t_2_3 - t_2_6 + 2000.000000 u_2_3_6 > 16.444189
t_2_6 - t_2_3 - 2000.000000 u_2_3_6 > -1979.194471
t_1_3 - t_1_7 - 2000.000000 s_1_7 > -1944.404767
t_1_3 - t_2_7 - 2000.000000 s_2_7 > -1947.952933
t_2_3 - t_1_7 - 2000.000000 s_1_7 > -1944.404767
t_2_3 - t_2_7 - 2000.000000 s_2_7 > -1947.952933
t_1_8 - t_1_3 - 2000.000000 s_1_3 > -1967.668617
t_1_8 - t_2_3 - 2000.000000 s_2_3 > -1974.194471
t_2_8 - t_1_3 - 2000.000000 s_1_3 > -1967.668617
t_2_8 - t_2_3 - 2000.000000 s_2_3 > -1974.194471
t_1_4 - t_1_1 + 2000.000000 u_1_4_1 - 2.500000 s_1_1 + 2.500000 s_1_6 > 17.382787
t_1_1 - t_1_4 - 2000.000000 u_1_4_1 > -1983.972539
t_2_4 - t_2_1 + 2000.000000 u_2_4_1 - 5.000000 s_2_1 + 5.000000 s_2_6 > 15.155133
t_2_1 - t_2_4 - 2000.000000 u_2_4_1 > -1986.317844
t_1_4 - t_1_2 + 2000.000000 u_1_4_2 - 2.500000 s_1_2 + 2.500000 s_1_7 > 19.563836
t_1_2 - t_1_4 - 2000.000000 u_1_4_2 > -1983.972539
t_2_4 - t_2_2 + 2000.000000 u_2_4_2 - 5.000000 s_2_2 + 5.000000 s_2_7 > 15.166022
t_2_2 - t_2_4 - 2000.000000 u_2_4_2 > -1986.317844
t_1_4 - t_1_3 - 2000.000000 s_1_3 > -1967.668617
t_1_4 - t_2_3 - 2000.000000 s_2_3 > -1974.194471
t_2_4 - t_1_3 - 2000.000000 s_1_3 > -1967.668617
t_2_4 - t_2_3 - 2000.000000 s_2_3 > -1974.194471
t_1_4 - t_1_5 + 2000.000000 u_1_4_5 - 5.000000 s_1_5 + 5.000000 s_1_7 > 14.394162
t_1_5 - t_1_4 - 2000.000000 u_1_4_5 > -1983.972539
t_2_4 - t_2_5 + 2000.000000 u_2_4_5 - 10.000000 s_2_5 + 10.000000 s_2_7 > 11.364322
t_2_5 - t_2_4 - 2000.000000 u_2_4_5 > -1986.317844
t_1_4 - t_1_6 + 2000.000000 u_1_4_6 > 37.574000
t_1_6 - t_1_4 - 2000.000000 u_1_4_6 > -1983.972539
t_2_4 - t_2_6 + 2000.000000 u_2_4_6 > 16.444189
t_2_6 - t_2_4 - 2000.000000 u_2_4_6 > -1986.317844
t_1_4 - t_1_7 - 2000.000000 s_1_7 > -1944.404767
t_1_4 - t_2_7 - 2000.000000 s_2_7 > -1947.952933
t_2_4 - t_1_7 - 2000.000000 s_1_7 > -1944.404767
t_2_4 - t_2_7 - 2000.000000 s_2_7 > -1947.952933
t_1_8 - t_1_4 - 2000.000000 s_1_4 > -1974.294726
t_1_8 - t_2_4 - 2000.000000 s_2_4 > -1966.962218
t_2_8 - t_1_4 - 2000.000000 s_1_4 > -1974.294726
t_2_8 - t_2_4 - 2000.000000 s_2_4 > -1966.962218
t_1_5 - t_1_1 + 2000.000000 u_1_5_1 - 2.500000 s_1_1 + 2.500000 s_1_6 > 17.382787
t_1_1 - t_1_5 - 2000.000000 u_1_5_1 > -1985.605838
t_2_5 - t_2_1 + 2000.000000 u_2_5_1 - 5.000000 s_2_1 + 5.000000 s_2_6 > 15.155133
t_2_1 - t_2_5 - 2000.000000 u_2_5_1 > -1988.635678
t_1_5 - t_1_2 + 2000.000000 u_1_5_2 - 2.500000 s_1_2 + 2.500000 s_1_7 > 19.563836
t_1_2 - t_1_5 - 2000.000000 u_1_5_2 > -1985.605838
t_2_5 - t_2_2 + 2000.000000 u_2_5_2 - 5.000000 s_2_2 + 5.000000 s_2_7 > 15.166022
t_2_2 - t_2_5 - 2000.000000 u_2_5_2 > -1988.635678
t_1_5 - t_1_3 + 2000.000000 u_1_5_3 - 2.500000 s_1_3 + 2.500000 s_1_7 > 29.831383
t_1_3 - t_1_5 - 2000.000000 u_1_5_3 > -1985.605838
t_2_5 - t_2_3 + 2000.000000 u_2_5_3 - 5.000000 s_2_3 + 5.000000 s_2_7 > 20.805529
t_2_3 - t_2_5 - 2000.000000 u_2_5_3 > -1988.635678
t_1_5 - t_1_4 + 2000.000000 u_1_5_4 - 9.677813 s_1_4 + 9.677813 s_1_7 > 16.027461
t_1_4 - t_1_5 - 2000.000000 u_1_5_4 > -1985.605838
t_2_5 - t_2_4 + 2000.000000 u_2_5_4 - 19.355627 s_2_4 + 19.355627 s_2_7 > 13.682156
t_2_4 - t_2_5 - 2000.000000 u_2_5_4 > -1988.635678
t_1_5 - t_1_6 - 2000.000000 s_1_6 > -1944.481467
t_1_5 - t_2_6 - 2000.000000 s_2_6 > -1947.666744
t_2_5 - t_1_6 - 2000.000000 s_1_6 > -1944.481467
t_2_5 - t_2_6 - 2000.000000 s_2_6 > -1947.666744
t_1_5 - t_1_7 - 2000.000000 s_1_7 > -1944.404767
t_1_5 - t_2_7 - 2000.000000 s_2_7 > -1947.952933
t_2_5 - t_1_7 - 2000.000000 s_1_7 > -1944.404767
t_2_5 - t_2_7 - 2000.000000 s_2_7 > -1947.952933
t_1_8 - t_1_5 - 2000.000000 s_1_5 > -1980.605838
t_1_8 - t_2_5 - 2000.000000 s_2_5 > -1978.635678
t_2_8 - t_1_5 - 2000.000000 s_1_5 > -1980.605838
t_2_8 - t_2_5 - 2000.000000 s_2_5 > -1978.635678
t_1_1 - t_1_6 - 2000.000000 s_1_6 > -1944.481467
t_1_1 - t_2_6 - 2000.000000 s_2_6 > -1947.666744
t_2_1 - t_1_6 - 2000.000000 s_1_6 > -1944.481467
t_2_1 - t_2_6 - 2000.000000 s_2_6 > -1947.666744
t_1_6 - t_1_2 + 2000.000000 u_1_6_2 - 2.500000 s_1_2 + 2.500000 s_1_7 > 19.563836
t_1_2 - t_1_6 - 2000.000000 u_1_6_2 > -1962.426000
t_2_6 - t_2_2 + 2000.000000 u_2_6_2 - 5.000000 s_2_2 + 5.000000 s_2_7 > 15.166022
t_2_2 - t_2_6 - 2000.000000 u_2_6_2 > -1983.555811
t_1_6 - t_1_3 + 2000.000000 u_1_6_3 - 2.500000 s_1_3 + 2.500000 s_1_7 > 29.831383
t_1_3 - t_1_6 - 2000.000000 u_1_6_3 > -1962.426000
t_2_6 - t_2_3 + 2000.000000 u_2_6_3 - 5.000000 s_2_3 + 5.000000 s_2_7 > 20.805529
t_2_3 - t_2_6 - 2000.000000 u_2_6_3 > -1983.555811
t_1_6 - t_1_4 + 2000.000000 u_1_6_4 - 9.677813 s_1_4 + 9.677813 s_1_7 > 16.027461
t_1_4 - t_1_6 - 2000.000000 u_1_6_4 > -1962.426000
t_2_6 - t_2_4 + 2000.000000 u_2_6_4 - 19.355627 s_2_4 + 19.355627 s_2_7 > 13.682156
t_2_4 - t_2_6 - 2000.000000 u_2_6_4 > -1983.555811
t_1_5 - t_1_6 - 2000.000000 s_1_6 > -1944.481467
t_1_5 - t_2_6 - 2000.000000 s_2_6 > -1947.666744
t_2_5 - t_1_6 - 2000.000000 s_1_6 > -1944.481467
t_2_5 - t_2_6 - 2000.000000 s_2_6 > -1947.666744
t_1_6 - t_1_7 + 2000.000000 u_1_6_7 > 37.650700
t_1_7 - t_1_6 - 2000.000000 u_1_6_7 > -1962.426000
t_2_6 - t_2_7 + 2000.000000 u_2_6_7 > 16.158000
t_2_7 - t_2_6 - 2000.000000 u_2_6_7 > -1983.555811
t_1_7 - t_1_1 + 2000.000000 u_1_7_1 - 2.500000 s_1_1 + 2.500000 s_1_6 > 17.382787
t_1_1 - t_1_7 - 2000.000000 u_1_7_1 > -1962.349300
t_2_7 - t_2_1 + 2000.000000 u_2_7_1 - 5.000000 s_2_1 + 5.000000 s_2_6 > 15.155133
t_2_1 - t_2_7 - 2000.000000 u_2_7_1 > -1983.842000
t_1_2 - t_1_7 - 2000.000000 s_1_7 > -1944.404767
t_1_2 - t_2_7 - 2000.000000 s_2_7 > -1947.952933
t_2_2 - t_1_7 - 2000.000000 s_1_7 > -1944.404767
t_2_2 - t_2_7 - 2000.000000 s_2_7 > -1947.952933
t_1_3 - t_1_7 - 2000.000000 s_1_7 > -1944.404767
t_1_3 - t_2_7 - 2000.000000 s_2_7 > -1947.952933
t_2_3 - t_1_7 - 2000.000000 s_1_7 > -1944.404767
t_2_3 - t_2_7 - 2000.000000 s_2_7 > -1947.952933
t_1_4 - t_1_7 - 2000.000000 s_1_7 > -1944.404767
t_1_4 - t_2_7 - 2000.000000 s_2_7 > -1947.952933
t_2_4 - t_1_7 - 2000.000000 s_1_7 > -1944.404767
t_2_4 - t_2_7 - 2000.000000 s_2_7 > -1947.952933
t_1_5 - t_1_7 - 2000.000000 s_1_7 > -1944.404767
t_1_5 - t_2_7 - 2000.000000 s_2_7 > -1947.952933
t_2_5 - t_1_7 - 2000.000000 s_1_7 > -1944.404767
t_2_5 - t_2_7 - 2000.000000 s_2_7 > -1947.952933
t_1_7 - t_1_6 + 2000.000000 u_1_7_6 > 37.574000
t_1_6 - t_1_7 - 2000.000000 u_1_7_6 > -1962.349300
t_2_7 - t_2_6 + 2000.000000 u_2_7_6 > 16.444189
t_2_6 - t_2_7 - 2000.000000 u_2_7_6 > -1983.842000
t_1_8 - t_1_1 - 2000.000000 s_1_1 > -1980.117213
t_1_8 - t_2_1 - 2000.000000 s_2_1 > -1979.844867
t_2_8 - t_1_1 - 2000.000000 s_1_1 > -1980.117213
t_2_8 - t_2_1 - 2000.000000 s_2_1 > -1979.844867
t_1_8 - t_1_2 - 2000.000000 s_1_2 > -1977.936164
t_1_8 - t_2_2 - 2000.000000 s_2_2 > -1979.833978
t_2_8 - t_1_2 - 2000.000000 s_1_2 > -1977.936164
t_2_8 - t_2_2 - 2000.000000 s_2_2 > -1979.833978
t_1_8 - t_1_3 - 2000.000000 s_1_3 > -1967.668617
t_1_8 - t_2_3 - 2000.000000 s_2_3 > -1974.194471
t_2_8 - t_1_3 - 2000.000000 s_1_3 > -1967.668617
t_2_8 - t_2_3 - 2000.000000 s_2_3 > -1974.194471
t_1_8 - t_1_4 - 2000.000000 s_1_4 > -1974.294726
t_1_8 - t_2_4 - 2000.000000 s_2_4 > -1966.962218
t_2_8 - t_1_4 - 2000.000000 s_1_4 > -1974.294726
t_2_8 - t_2_4 - 2000.000000 s_2_4 > -1966.962218
t_1_8 - t_1_5 - 2000.000000 s_1_5 > -1980.605838
t_1_8 - t_2_5 - 2000.000000 s_2_5 > -1978.635678
t_2_8 - t_1_5 - 2000.000000 s_1_5 > -1980.605838
t_2_8 - t_2_5 - 2000.000000 s_2_5 > -1978.635678
Binary
s_1_1
s_2_1
s_1_2
s_2_2
s_1_3
s_2_3
s_1_4
s_2_4
s_1_5
s_2_5
s_1_6
s_2_6
s_1_7
s_2_7
s_1_8
s_2_8
u_1_1_2
u_2_1_2
u_1_1_3
u_2_1_3
u_1_1_4
u_2_1_4
u_1_1_5
u_2_1_5
u_1_1_7
u_2_1_7
u_1_2_1
u_2_2_1
u_1_2_3
u_2_2_3
u_1_2_4
u_2_2_4
u_1_2_5
u_2_2_5
u_1_2_6
u_2_2_6
u_1_3_1
u_2_3_1
u_1_3_2
u_2_3_2
u_1_3_5
u_2_3_5
u_1_3_6
u_2_3_6
u_1_4_1
u_2_4_1
u_1_4_2
u_2_4_2
u_1_4_5
u_2_4_5
u_1_4_6
u_2_4_6
u_1_5_1
u_2_5_1
u_1_5_2
u_2_5_2
u_1_5_3
u_2_5_3
u_1_5_4
u_2_5_4
u_1_6_2
u_2_6_2
u_1_6_3
u_2_6_3
u_1_6_4
u_2_6_4
u_1_6_7
u_2_6_7
u_1_7_1
u_2_7_1
u_1_7_6
u_2_7_6

End
